NAME: tsp20-29
TYPE: TSP
DIMENSION: 20
EDGE_WEIGHT_TYPE: EUC_2D
NODE_COORD_SECTION
0 10 85
1 87 82
2 32 3
3 39 81
4 70 25
5 66 63
6 1 40
7 82 31
8 68 20
9 10 3
10 35 41
11 29 19
12 33 42
13 30 80
14 85 20
15 48 88
16 73 34
17 78 43
18 57 41
19 41 85
EOF